(declare-fun strlen_471_64 () (_ BitVec 64))
(declare-fun mem_7fffffffffee5d4_316_744 () (_ BitVec 744))
(assert (let ((a!1 (concat (concat (concat ((_ extract 687 680)
                                     mem_7fffffffffee5d4_316_744)
                                   ((_ extract 695 688)
                                     mem_7fffffffffee5d4_316_744))
                           ((_ extract 703 696) mem_7fffffffffee5d4_316_744))
                   ((_ extract 711 704) mem_7fffffffffee5d4_316_744)))
      (a!3 (concat (concat (concat ((_ extract 719 712)
                                     mem_7fffffffffee5d4_316_744)
                                   ((_ extract 727 720)
                                     mem_7fffffffffee5d4_316_744))
                           ((_ extract 735 728) mem_7fffffffffee5d4_316_744))
                   ((_ extract 743 736) mem_7fffffffffee5d4_316_744)))
      (a!5 (concat (concat (concat ((_ extract 655 648)
                                     mem_7fffffffffee5d4_316_744)
                                   ((_ extract 663 656)
                                     mem_7fffffffffee5d4_316_744))
                           ((_ extract 671 664) mem_7fffffffffee5d4_316_744))
                   ((_ extract 679 672) mem_7fffffffffee5d4_316_744)))
      (a!7 (concat (concat (concat ((_ extract 623 616)
                                     mem_7fffffffffee5d4_316_744)
                                   ((_ extract 631 624)
                                     mem_7fffffffffee5d4_316_744))
                           ((_ extract 639 632) mem_7fffffffffee5d4_316_744))
                   ((_ extract 647 640) mem_7fffffffffee5d4_316_744))))
(let ((a!2 (bvnot (bvor (bvnot (bvadd #xfefefeff a!1)) a!1 #x7f7f7f7f)))
      (a!4 (bvnot (bvor (bvnot (bvadd #xfefefeff a!3)) a!3 #x7f7f7f7f)))
      (a!6 (bvnot (bvor (bvnot (bvadd #xfefefeff a!5)) a!5 #x7f7f7f7f)))
      (a!8 (bvnot (bvor (bvnot (bvadd #xfefefeff a!7)) a!7 #x7f7f7f7f))))
  (and (= #x00000000 a!2)
       (= #x00000000 a!4)
       (= #x00000000 a!6)
       (not (= #x00000000 a!8))
       (= #x0000000000000000 strlen_471_64)))))
(define-fun goal () (_ BitVec 64) (let ((a!1 (bvor (bvnot (bvadd #xff
                               ((_ extract 647 640) mem_7fffffffffee5d4_316_744)))
                 ((_ extract 647 640) mem_7fffffffffee5d4_316_744)
                 #x7f))
      (a!2 ((_ extract 15 8)
             (bvadd #xfeff
                    (concat ((_ extract 639 632) mem_7fffffffffee5d4_316_744)
                            ((_ extract 647 640) mem_7fffffffffee5d4_316_744)))))
      (a!5 (concat (concat (concat ((_ extract 623 616)
                                     mem_7fffffffffee5d4_316_744)
                                   ((_ extract 631 624)
                                     mem_7fffffffffee5d4_316_744))
                           ((_ extract 639 632) mem_7fffffffffee5d4_316_744))
                   ((_ extract 647 640) mem_7fffffffffee5d4_316_744))))
(let ((a!3 (= #x00
              (bvnot (bvor (bvnot a!2)
                           ((_ extract 639 632) mem_7fffffffffee5d4_316_744)
                           #x7f))))
      (a!6 (bvor (bvnot ((_ extract 23 16) (bvadd #xfefefeff a!5)))
                 ((_ extract 631 624) mem_7fffffffffee5d4_316_744)
                 #x7f)))
(let ((a!4 (ite (and (= #x00 (bvnot a!1)) a!3)
                #x07fffffffffee5e6
                #x07fffffffffee5e4))
      (a!7 (ite (and (= #x00 (bvnot a!1)) a!3) (bvnot a!6) (bvnot a!1))))
(let ((a!8 (concat #b000000000000000000000000000000000000000000000000000000000000000
                   (ite (bvule a!7 (bvmul #x02 a!7)) #b0 #b1))))
  (bvadd #xfffffffffffffffd a!4 (bvmul #xffffffffffffffff a!8))))))) 
(maximize goal)
(check-sat)